p cnf 122 343
c t mc
4 2 0
4 -3 0
-2 3 -4 0
-5 -1 0
-5 4 0
1 -4 5 0
9 7 0
9 8 0
-7 -8 -9 0
12 -10 0
12 11 0
10 -11 -12 0
-14 10 0
-14 -13 0
-10 13 14 0
15 12 0
15 -14 0
-12 14 -15 0
16 -9 0
16 -15 0
9 15 -16 0
17 6 0
17 -16 0
-6 16 -17 0
-6 18 -19 0
6 -18 -19 0
-6 -18 19 0
6 18 19 0
20 19 0
20 9 0
-19 -9 -20 0
-24 22 0
-24 23 0
-22 -23 24 0
-25 21 0
-25 24 0
-21 -24 25 0
27 -4 0
27 -26 0
4 26 -27 0
28 -27 0
28 -7 0
27 7 -28 0
29 -30 -31 0
-29 30 -31 0
29 30 31 0
-29 -30 31 0
-32 -6 0
-32 21 0
6 -21 32 0
-33 -13 -34 0
33 13 -34 0
-33 13 34 0
33 -13 34 0
35 -32 0
35 -34 0
32 34 -35 0
-36 -31 0
-36 35 0
31 -35 36 0
37 -28 0
37 -36 0
28 36 -37 0
25 -37 -38 0
-25 37 -38 0
25 37 38 0
-25 -37 38 0
39 20 0
39 -38 0
-20 38 -39 0
-17 -39 -40 0
17 39 -40 0
-17 39 40 0
17 -39 40 0
-41 5 0
-41 -40 0
-5 40 41 0
42 -18 0
42 -18 0
18 -42 0
-43 -3 0
-43 42 0
3 -42 43 0
-44 18 0
-44 13 0
-18 -13 44 0
45 -44 0
45 -3 0
44 3 -45 0
-48 -46 0
-48 -47 0
46 47 48 0
-50 -29 0
-50 49 0
29 -49 50 0
51 -10 0
51 -50 0
10 50 -51 0
52 48 0
52 -51 0
-48 51 -52 0
53 -45 0
53 -52 0
45 52 -53 0
8 48 -54 0
-8 -48 -54 0
8 -48 54 0
-8 48 54 0
-55 49 0
-55 54 0
-49 -54 55 0
-56 53 0
-56 55 0
-53 -55 56 0
58 57 0
58 22 0
-57 -22 -58 0
-59 -58 0
-59 -22 0
58 22 59 0
61 -60 0
61 -21 0
60 21 -61 0
-62 59 0
-62 -61 0
-59 61 62 0
-56 -62 -63 0
56 62 -63 0
-56 62 63 0
56 -62 63 0
43 -63 -64 0
-43 63 -64 0
43 63 64 0
-43 -63 64 0
-7 8 -65 0
7 -8 -65 0
-7 -8 65 0
7 8 65 0
-66 8 0
-66 -46 0
-8 46 66 0
-32 -66 -67 0
32 66 -67 0
-32 66 67 0
32 -66 67 0
68 -19 -69 0
-68 19 -69 0
68 19 69 0
-68 -19 69 0
-67 -69 -70 0
67 69 -70 0
-67 69 70 0
67 -69 70 0
71 -65 0
71 -70 0
65 70 -71 0
-7 8 -72 0
7 -8 -72 0
-7 -8 72 0
7 8 72 0
73 8 -74 0
-73 -8 -74 0
73 -8 74 0
-73 8 74 0
75 -72 0
75 74 0
72 -74 -75 0
71 -75 -76 0
-71 75 -76 0
71 75 76 0
-71 -75 76 0
-77 3 0
-77 -7 0
-3 7 77 0
-76 -77 -78 0
76 77 -78 0
-76 77 78 0
76 -77 78 0
64 78 -79 0
-64 -78 -79 0
64 -78 79 0
-64 78 79 0
-18 58 -80 0
18 -58 -80 0
-18 -58 80 0
18 58 80 0
82 80 0
82 81 0
-80 -81 -82 0
-82 -14 -83 0
82 14 -83 0
-82 14 83 0
82 -14 83 0
85 -83 0
85 -84 0
83 84 -85 0
87 8 0
87 86 0
-8 -86 -87 0
85 87 -88 0
-85 -87 -88 0
85 -87 88 0
-85 87 88 0
21 -82 -89 0
-21 82 -89 0
21 82 89 0
-21 -82 89 0
91 34 0
91 90 0
-34 -90 -91 0
92 -16 0
92 12 0
16 -12 -92 0
91 92 -93 0
-91 -92 -93 0
91 -92 93 0
-91 92 93 0
89 93 -94 0
-89 -93 -94 0
89 -93 94 0
-89 93 94 0
95 -88 0
95 -94 0
88 94 -95 0
97 -96 0
97 22 0
96 -22 -97 0
-98 95 0
-98 97 0
-95 -97 98 0
-99 -79 0
-99 -98 0
79 98 99 0
-100 -41 0
-100 99 0
41 -99 100 0
101 -54 0
101 -9 0
54 9 -101 0
-103 90 0
-103 102 0
-90 -102 103 0
-104 -103 0
-104 29 0
103 -29 104 0
-66 84 -105 0
66 -84 -105 0
-66 -84 105 0
66 84 105 0
106 104 0
106 105 0
-104 -105 -106 0
107 -101 0
107 106 0
101 -106 -107 0
109 3 0
109 108 0
-3 -108 -109 0
102 -47 -110 0
-102 47 -110 0
102 47 110 0
-102 -47 110 0
111 -110 0
111 -46 0
110 46 -111 0
-109 111 -112 0
109 -111 -112 0
-109 -111 112 0
109 111 112 0
-114 -8 0
-114 -113 0
8 113 114 0
-115 33 0
-115 86 0
-33 -86 115 0
-117 116 0
-117 -22 0
-116 22 117 0
115 -117 -118 0
-115 117 -118 0
115 117 118 0
-115 -117 118 0
-114 118 -119 0
114 -118 -119 0
-114 -118 119 0
114 118 119 0
120 -112 0
120 119 0
112 -119 -120 0
121 -107 0
121 120 0
107 -120 -121 0
-122 100 0
-122 -121 0
-100 121 122 0
40 -97 54 -90 120 100 76 106 0
-78 -31 100 0
-1 -109 -90 -12 102 17 -53 -13 0
-46 -3 -108 0
53 3 18 -64 19 -117 0
47 -65 54 -89 -27 0
-109 -10 1 -11 -79 21 -56 112 0
-69 42 -111 -70 -89 33 -122 108 -79 0
-21 78 116 -105 54 111 122 0
-7 85 -63 -81 103 94 -36 -102 0
30 94 5 -12 -19 52 0
-70 115 -76 122 9 -63 -56 -61 -101 -117 0
-49 83 -113 100 0
87 110 -64 -101 71 -122 61 0
60 -82 -89 -83 66 0
-118 -97 -117 -61 0
-118 97 115 -92 3 46 10 27 -55 0
26 -120 -37 42 -57 -82 30 0
40 -75 117 20 110 79 -1 31 0
-85 -47 51 -64 -16 57 0
-6 2 -19 113 41 -105 -13 90 89 0
37 -38 101 -30 0
-61 -89 26 0
104 58 97 -39 103 42 -82 0
44 45 -86 61 15 -121 3 0
46 -27 43 -4 -55 106 -118 0
-74 -19 -3 -65 -100 7 -77 56 73 0
114 104 99 -81 -21 43 79 27 -120 63 0
-26 -100 28 0
99 93 -14 -111 -30 108 0
-30 112 107 -72 -63 11 -86 79 88 -109 0
8 47 100 -105 0
82 -104 -100 116 0
-61 14 46 9 69 -81 70 -108 -32 44 0
-93 114 -92 -45 -65 103 47 -116 0
105 83 77 88 0
-114 25 97 -22 0
89 -87 -56 -78 91 -57 -44 0
3 -63 -24 9 60 -22 -102 84 0
49 111 -71 -63 0
107 60 24 -103 113 -45 -53 85 97 21 0
-88 41 -105 -72 63 115 -15 77 0
62 80 15 105 -117 -67 0
46 -31 -3 98 0
30 -113 -89 -54 -8 -60 0
-52 -99 -97 -13 84 0
-106 48 -1 -38 111 -37 43 -35 17 0
122 0
